1607
0 42 84 128 257 391 452 527 622 642 
0 80 214 354 394 495 612 704 802 916 
0 41 59 64 165 184 392 453 704 791 
0 140 231 305 346 354 427 481 600 619 
0 23 94 175 230 453 475 584 653 728 
14 45 128 159 184 296 577 722 794 860 
0 33 65 230 290 384 484 562 716 854 
179 246 305 390 527 770 880 943 1045 1108 
0 244 458 519 612 871 961 1045 1056 1072 
0 48 118 205 403 447 475 634 692 741 
288 384 427 519 656 776 896 945 1019 1093 
43 113 120 423 545 648 839 916 1108 1121 
88 192 231 274 365 452 536 773 996 1121 
0 41 346 557 814 925 1137 1291 1348 1434 
562 653 794 987 1093 1100 1145 1236 1298 1386 
380 447 728 792 880 1035 1090 1298 1362 1442 
0 752 898 945 1100 1140 1183 1244 1296 1320 
824 894 994 1014 1105 1169 1234 1266 1362 1386 
47 120 184 894 961 1079 1132 1164 1244 1258 
54 626 941 1212 1296 1463 1538 1564 1573 1596 
